\ Equation counts
\     Total        E        G        L        N        X        C        B
\         0        0        0        0        0        0        0        0
\ 
\ Variable counts
\                  x        b        i      s1s      s2s       sc       si
\     Total     cont   binary  integer     sos1     sos2    scont     sint
\       508        0      508        0        0        0        0        0
\ 
\ Nonzero counts
\     Total    const       NL      DLL
\       508        0      508        0
\ 
Maximize
 obj: 4 b1 + 0 b2 + 2 b3 + 6 b4 + 0 b5 + 2 b6 + 4 b7 + b8 + 3 b9 - b10 + b11 - b12 - b13 - b14 + 5 b15 
  + 0 b16 + 4 b17 - 4 b18 - 2 b19 + 3 b20 - 3 b21 + 3 b22 + 2 b23 + 0 b24 - 2 b25 + 0 b26 + 2 b27 + b28 
  - b29 + b30 - b31 - 4 b32 + 2 b33 + 0 b34 - 2 b35 - 5 b36 - b37 + b38 + b39 - 2 b40 + 2 b41 - 4 b42 
  + 4 b43 - b44 - 3 b45 - b46 - b47 - 2 b48 + 0 b49 + 0 b50 - 2 b51 + 5 b52 + b53 - 3 b54 - 3 b55 - 2 b56 
  + 0 b57 - 2 b58 - b59 - 3 b60 + 3 b61 + b62 + b63 - b64 + b65 + b66 - 4 b67 + 0 b68 + 2 b69 + 0 b70 
  + b71 + 5 b72 + b73 + 3 b74 - b75 + 3 b76 + 3 b77 - b78 - b79 + b80 + b81 - b82 + b83 - 3 b84 - 5 b85 
  - b86 - 3 b87 - 3 b88 - b89 + b90 - 3 b91 - b92 + b93 - b94 + b95 + 3 b96 - b97 + 5 b98 + b99 - b100 
  + b101 + 5 b102 + b103 - 3 b104 - 7 b105 - b106 - b107 - 3 b108 - b109 + b110 - 5 b111 - b112 - 3 b113 
  + b114 - 3 b115 - b116 - 3 b117 + b118 - 3 b119 + b120 + 3 b121 - 2 b122 + 0 b123 + 0 b124 + 0 b125 
  - 4 b126 + 5 b127 - b128 + 5 b129 - 3 b130 + 6 b131 - 2 b132 + 0 b133 - 2 b134 - 3 b135 - b136 - 3 b137 
  - b138 + b139 + b140 - b141 - 3 b142 - b143 + 5 b144 - b145 + b146 + 5 b147 - b148 - b149 + 3 b150 
  - b151 - b152 - b153 + b154 - b155 + b156 + b157 + b158 + b159 + b160 - b161 - b162 + b163 - b164 + b165 
  + 3 b166 + b167 + 3 b168 + 3 b169 + b170 + 3 b171 - b172 + b173 + 3 b174 - 7 b175 - 3 b176 + 5 b177 
  + b178 - b179 - b180 - 3 b181 + b182 - 5 b183 - 5 b184 + b185 - 3 b186 + 0 b187 - 4 b188 - 2 b189 - 6 b190 
  - b191 - b192 - b193 + b194 - 2 b195 + 0 b196 + 2 b197 - 2 b198 - 5 b199 - b200 + b201 - 5 b202 - b203 
  + 5 b204 - b205 - 5 b206 - b207 - b208 - 3 b209 - b210 + 3 b211 - 3 b212 - b213 + b214 - 5 b215 - 3 b216 
  + b217 - b218 + b219 - 5 b220 - b221 + b222 - 3 b223 - b224 - 3 b225 - b226 + b227 - b228 - 5 b229 
  - b230 - b231 + b232 + b233 + b234 + 5 b235 + b236 + b237 + b238 - b239 - b240 + b241 + 5 b242 - 3 b243 
  - 3 b244 + b245 + 3 b246 - 5 b247 + 3 b248 - 3 b249 - b250 - 2 b251 + 0 b252 - 2 b253 + 0 b254 + b255 
  + 3 b256 + 3 b257 + b258 + 2 b259 + 2 b260 + 2 b261 + 6 b262 - 3 b263 - b264 + 3 b265 + b266 + b267 
  - b268 - b269 - 3 b270 + b271 - b272 + 3 b273 + b274 - b275 + 3 b276 + b277 - 3 b278 - 3 b279 - b280 
  - 3 b281 - b282 - 3 b283 - b284 + b285 + b286 - 3 b287 + b288 - 3 b289 + 5 b290 - 3 b291 + b292 + b293 
  + b294 - b295 - b296 + b297 + b298 + b299 - b300 - b301 + b302 + b303 - 5 b304 + 5 b305 + 3 b306 + 3 b307 
  - b308 + 3 b309 + b310 + b311 + 3 b312 - b313 - 3 b314 + 4 b315 + 0 b316 - 2 b317 - 2 b318 + b319 - b320 
  + 3 b321 + b322 + 4 b323 - 2 b324 + 0 b325 + 4 b326 + b327 + b328 + b329 + b330 + b331 - b332 - 5 b333 
  + 3 b334 + 3 b335 + b336 - 5 b337 - b338 + 3 b339 - 3 b340 - 5 b341 + 3 b342 + 5 b343 + 5 b344 - 3 b345 
  + b346 + 5 b347 + b348 + 3 b349 + 5 b350 - b351 + 3 b352 - 7 b353 + 3 b354 - b355 - b356 - b357 + b358 
  + b359 - b360 + 0 b361 - b362 - b363 - b364 + b365 + b366 + 3 b367 - b368 + b369 + b370 + 3 b371 - b372 
  - b373 - b374 + b375 + 3 b376 + b377 + 3 b378 - 2 b379 - 2 b380 - 2 b381 + 4 b382 + b383 + b384 - 3 b385 
  + 3 b386 + 4 b387 - 2 b388 + 2 b389 - b390 - 2 b391 - 4 b392 + 2 b393 + 0 b394 - b395 - 3 b396 - b397 
  - b398 + b399 + b400 - 3 b401 - b402 + b403 - 3 b404 + 2 b405 + 7 b406 + b407 - b408 + b409 - 5 b410 
  + 3 b411 + 3 b412 + 5 b413 + b414 + 3 b415 - b416 + b417 + b418 - b419 + 3 b420 - 2 b421 + 0 b422 + 0 b423 
  - 4 b424 + 0 b425 - 4 b426 - 2 b427 + 5 b428 + 3 b429 + 3 b430 + 3 b431 + b432 + b433 - b434 + 4 b435 
  + 5 b436 + 3 b437 - b438 + 3 b439 + 2 b440 + 2 b441 + 2 b442 + 2 b443 + 2 b444 + 0 b445 + 2 b446 - 2 b447 
  + 0 b448 + 4 b449 + 2 b450 + 2 b451 + 2 b452 + 0 b453 + 2 b454 + 0 b455 + 3 b456 + 3 b457 + 5 b458 
  + b459 + 4 b460 + 6 b461 + 2 b462 + 0 b463 - b464 + 7 b465 + 3 b466 + b467 + 4 b468 - 2 b469 - 2 b470 
  + 0 b471 + 3 b472 - 3 b473 - 5 b474 + b475 + 4 b476 - 2 b477 - 6 b478 - 6 b479 - b480 + b481 - 5 b482 
  - 3 b483 + 2 b484 + 2 b485 - 3 b486 - 2 b487 - 3 b488 + 3 b489 + b490 - 3 b491 - 4 b492 - 2 b493 + 2 b494 
  + 2 b495 - 3 b496 - 3 b497 + b498 - 3 b499 + 2 b500 + 0 b501 + 0 b502 + 0 b503 + 2 b504 + 0 b505 + 4 b506 
  - 2 b507 - 29 b508 + [ - 4 b1 * b5 - 4 b1 * b6 - 4 b1 * b7 + 4 b1 * b8 - 4 b1 * b63 - 4 b1 * b508 + 4 b2 * b5 
  - 4 b2 * b6 - 4 b2 * b7 + 4 b2 * b8 + 4 b2 * b64 - 4 b2 * b508 - 4 b3 * b5 - 4 b3 * b6 - 4 b3 * b7 
  - 4 b3 * b8 + 4 b3 * b65 + 4 b3 * b508 - 4 b4 * b5 - 4 b4 * b6 - 4 b4 * b7 - 4 b4 * b8 - 4 b4 * b66 
  - 4 b4 * b508 + 4 b5 * b13 + 4 b5 * b508 + 4 b6 * b14 + 4 b6 * b508 - 4 b7 * b15 + 4 b7 * b508 - 4 b8 * b508 
  - 4 b9 * b13 - 4 b9 * b14 - 4 b9 * b15 - 4 b9 * b71 + 4 b9 * b508 - 4 b10 * b13 + 4 b10 * b14 + 4 b10 * b15 
  - 4 b10 * b72 + 4 b10 * b508 - 4 b11 * b13 + 4 b11 * b14 - 4 b11 * b15 - 4 b11 * b73 + 4 b11 * b508 
  + 4 b12 * b13 - 4 b12 * b14 - 4 b12 * b15 + 4 b12 * b74 + 4 b12 * b508 + 4 b13 * b20 + 4 b13 * b508 
  + 4 b14 * b21 - 4 b14 * b508 - 4 b15 * b22 - 4 b15 * b508 - 4 b16 * b20 + 4 b16 * b21 - 4 b16 * b22 
  + 4 b16 * b23 - 4 b16 * b79 + 4 b16 * b508 - 4 b17 * b20 - 4 b17 * b21 - 4 b17 * b22 - 4 b17 * b23 
  + 4 b17 * b80 - 4 b17 * b508 + 4 b18 * b20 + 4 b18 * b21 + 4 b18 * b22 - 4 b18 * b23 + 4 b18 * b81 
  + 4 b18 * b508 - 4 b19 * b20 + 4 b19 * b21 + 4 b19 * b22 - 4 b19 * b23 + 4 b19 * b82 + 4 b19 * b508 
  - 4 b20 * b28 - 4 b20 * b508 + 4 b21 * b29 - 4 b21 * b508 - 4 b22 * b30 - 4 b22 * b508 + 4 b23 * b31 
  - 4 b23 * b508 + 4 b24 * b28 - 4 b24 * b29 - 4 b24 * b30 - 4 b24 * b31 + 4 b24 * b87 + 4 b24 * b508 
  - 4 b25 * b28 + 4 b25 * b29 + 4 b25 * b30 - 4 b25 * b31 + 4 b25 * b88 + 4 b25 * b508 + 4 b26 * b28 
  - 4 b26 * b29 - 4 b26 * b30 + 4 b26 * b31 + 4 b26 * b89 - 4 b26 * b508 - 4 b27 * b28 + 4 b27 * b29 
  - 4 b27 * b30 - 4 b27 * b31 - 4 b27 * b90 + 4 b27 * b508 + 4 b28 * b36 - 4 b28 * b508 + 4 b29 * b37 
  - 4 b29 * b508 + 4 b30 * b38 + 4 b30 * b508 + 4 b31 * b39 + 4 b31 * b508 + 4 b32 * b36 + 4 b32 * b37 
  + 4 b32 * b38 - 4 b32 * b39 + 4 b32 * b95 + 4 b32 * b508 + 4 b33 * b36 - 4 b33 * b37 - 4 b33 * b38 
  - 4 b33 * b39 + 4 b33 * b96 - 4 b33 * b508 + 4 b34 * b36 - 4 b34 * b37 + 4 b34 * b38 - 4 b34 * b39 
  - 4 b34 * b97 + 4 b34 * b508 + 4 b35 * b36 + 4 b35 * b37 - 4 b35 * b38 + 4 b35 * b39 - 4 b35 * b98 
  + 4 b35 * b508 - 4 b36 * b44 + 4 b36 * b508 + 4 b37 * b45 - 4 b37 * b508 - 4 b38 * b46 - 4 b38 * b508 
  + 4 b39 * b47 - 4 b39 * b508 + 4 b40 * b44 + 4 b40 * b45 + 4 b40 * b46 - 4 b40 * b47 - 4 b40 * b103 
  + 4 b40 * b508 - 4 b41 * b44 - 4 b41 * b45 - 4 b41 * b46 + 4 b41 * b47 + 4 b41 * b104 - 4 b41 * b508 
  + 4 b42 * b44 + 4 b42 * b45 - 4 b42 * b46 + 4 b42 * b47 + 4 b42 * b105 + 4 b42 * b508 - 4 b43 * b44 
  - 4 b43 * b45 + 4 b43 * b46 - 4 b43 * b47 - 4 b43 * b106 - 4 b43 * b508 + 4 b44 * b52 + 4 b44 * b508 
  + 4 b45 * b53 + 4 b45 * b508 + 4 b46 * b54 + 4 b46 * b508 + 4 b47 * b55 - 4 b47 * b508 - 4 b48 * b52 
  + 4 b48 * b53 + 4 b48 * b54 + 4 b48 * b55 + 4 b48 * b111 - 4 b48 * b508 - 4 b49 * b52 - 4 b49 * b53 
  - 4 b49 * b54 + 4 b49 * b55 + 4 b49 * b112 + 4 b49 * b508 - 4 b50 * b52 - 4 b50 * b53 + 4 b50 * b54 
  - 4 b50 * b55 + 4 b50 * b113 + 4 b50 * b508 - 4 b51 * b52 - 4 b51 * b53 + 4 b51 * b54 + 4 b51 * b55 
  + 4 b51 * b114 + 4 b51 * b508 - 4 b52 * b59 - 4 b52 * b508 + 4 b53 * b60 - 4 b53 * b508 - 4 b54 * b61 
  + 4 b54 * b508 - 4 b55 * b62 + 4 b55 * b508 - 4 b56 * b59 + 4 b56 * b60 - 4 b56 * b61 + 4 b56 * b62 
  + 4 b56 * b119 + 4 b56 * b508 + 4 b57 * b59 + 4 b57 * b60 - 4 b57 * b61 - 4 b57 * b62 + 4 b57 * b120 
  - 4 b57 * b508 + 4 b58 * b59 + 4 b58 * b60 + 4 b58 * b61 - 4 b58 * b62 - 4 b58 * b121 + 4 b58 * b508 
  + 4 b59 * b508 - 4 b60 * b508 - 4 b61 * b508 + 4 b62 * b508 + 4 b63 * b67 + 4 b63 * b68 - 4 b63 * b69 
  - 4 b63 * b70 - 4 b63 * b127 + 4 b63 * b508 + 4 b64 * b67 + 4 b64 * b68 - 4 b64 * b69 - 4 b64 * b70 
  - 4 b64 * b128 + 4 b64 * b508 + 4 b65 * b67 - 4 b65 * b68 - 4 b65 * b69 - 4 b65 * b70 - 4 b65 * b129 
  + 4 b65 * b508 - 4 b66 * b67 + 4 b66 * b68 + 4 b66 * b69 + 4 b66 * b70 - 4 b66 * b130 - 4 b66 * b508 
  + 4 b67 * b75 + 4 b67 * b508 - 4 b68 * b76 - 4 b68 * b508 - 4 b69 * b77 + 4 b69 * b508 + 4 b70 * b78 
  + 4 b70 * b508 + 4 b71 * b75 + 4 b71 * b76 - 4 b71 * b77 + 4 b71 * b78 - 4 b71 * b135 - 4 b71 * b508 
  - 4 b72 * b75 - 4 b72 * b76 - 4 b72 * b77 - 4 b72 * b78 + 4 b72 * b136 - 4 b72 * b508 - 4 b73 * b75 
  + 4 b73 * b76 - 4 b73 * b77 + 4 b73 * b78 + 4 b73 * b137 - 4 b73 * b508 - 4 b74 * b75 - 4 b74 * b76 
  - 4 b74 * b77 + 4 b74 * b78 - 4 b74 * b138 - 4 b74 * b508 + 4 b75 * b83 + 4 b75 * b508 - 4 b76 * b84 
  - 4 b76 * b508 + 4 b77 * b85 + 4 b77 * b508 - 4 b78 * b86 - 4 b78 * b508 - 4 b79 * b83 + 4 b79 * b84 
  + 4 b79 * b85 + 4 b79 * b86 - 4 b79 * b143 + 4 b79 * b508 - 4 b80 * b83 - 4 b80 * b84 + 4 b80 * b85 
  + 4 b80 * b86 - 4 b80 * b144 - 4 b80 * b508 - 4 b81 * b83 + 4 b81 * b84 + 4 b81 * b85 - 4 b81 * b86 
  - 4 b81 * b145 - 4 b81 * b508 + 4 b82 * b83 + 4 b82 * b84 + 4 b82 * b85 - 4 b82 * b86 - 4 b82 * b146 
  - 4 b82 * b508 - 4 b83 * b91 + 4 b83 * b508 + 4 b84 * b92 + 4 b84 * b508 - 4 b85 * b93 + 4 b85 * b508 
  + 4 b86 * b94 + 4 b86 * b508 + 4 b87 * b91 + 4 b87 * b92 + 4 b87 * b93 - 4 b87 * b94 + 4 b87 * b151 
  - 4 b87 * b508 + 4 b88 * b91 + 4 b88 * b92 - 4 b88 * b93 + 4 b88 * b94 + 4 b88 * b152 - 4 b88 * b508 
  + 4 b89 * b91 - 4 b89 * b92 - 4 b89 * b93 + 4 b89 * b94 + 4 b89 * b153 - 4 b89 * b508 - 4 b90 * b91 
  - 4 b90 * b92 - 4 b90 * b93 + 4 b90 * b94 + 4 b90 * b154 + 4 b90 * b508 + 4 b91 * b99 + 4 b91 * b508 
  + 4 b92 * b100 - 4 b92 * b508 + 4 b93 * b101 + 4 b93 * b508 - 4 b94 * b102 - 4 b94 * b508 + 4 b95 * b99 
  - 4 b95 * b100 - 4 b95 * b101 - 4 b95 * b102 + 4 b95 * b159 - 4 b95 * b508 - 4 b96 * b99 + 4 b96 * b100 
  - 4 b96 * b101 - 4 b96 * b102 - 4 b96 * b160 - 4 b96 * b508 - 4 b97 * b99 + 4 b97 * b100 + 4 b97 * b101 
  - 4 b97 * b102 + 4 b97 * b161 + 4 b97 * b508 - 4 b98 * b99 - 4 b98 * b100 + 4 b98 * b101 - 4 b98 * b102 
  - 4 b98 * b162 - 4 b98 * b508 - 4 b99 * b107 + 4 b99 * b508 + 4 b100 * b108 - 4 b100 * b508 - 4 b101 * b109 
  - 4 b101 * b508 - 4 b102 * b110 + 4 b102 * b508 + 4 b103 * b107 + 4 b103 * b108 + 4 b103 * b109 - 4 b103 * b110 
  - 4 b103 * b167 - 4 b103 * b508 - 4 b104 * b107 + 4 b104 * b108 - 4 b104 * b109 + 4 b104 * b110 + 4 b104 * b168 
  + 4 b104 * b508 + 4 b105 * b107 + 4 b105 * b108 + 4 b105 * b109 + 4 b105 * b110 + 4 b105 * b169 + 4 b105 * b508 
  - 4 b106 * b107 + 4 b106 * b108 + 4 b106 * b109 - 4 b106 * b110 + 4 b106 * b170 + 4 b106 * b508 + 4 b107 * b115 
  + 4 b107 * b508 - 4 b108 * b116 - 4 b108 * b508 - 4 b109 * b117 + 4 b109 * b508 - 4 b110 * b118 + 4 b110 * b508 
  + 4 b111 * b115 + 4 b111 * b116 + 4 b111 * b117 - 4 b111 * b118 + 4 b111 * b175 + 4 b111 * b508 + 4 b112 * b115 
  - 4 b112 * b116 + 4 b112 * b117 - 4 b112 * b118 - 4 b112 * b176 + 4 b112 * b508 + 4 b113 * b115 + 4 b113 * b116 
  + 4 b113 * b117 - 4 b113 * b118 - 4 b113 * b177 + 4 b113 * b508 - 4 b114 * b115 + 4 b114 * b116 - 4 b114 * b117 
  + 4 b114 * b118 - 4 b114 * b178 - 4 b114 * b508 - 4 b115 * b123 + 4 b115 * b508 + 4 b116 * b124 - 4 b116 * b508 
  + 4 b117 * b125 + 4 b117 * b508 + 4 b118 * b126 + 4 b118 * b508 - 4 b119 * b123 + 4 b119 * b124 - 4 b119 * b125 
  + 4 b119 * b126 + 4 b119 * b183 + 4 b119 * b508 + 4 b120 * b123 - 4 b120 * b124 - 4 b120 * b125 + 4 b120 * b126 
  - 4 b120 * b184 - 4 b120 * b508 - 4 b121 * b123 - 4 b121 * b124 + 4 b121 * b125 - 4 b121 * b126 + 4 b121 * b185 
  - 4 b121 * b508 + 4 b122 * b123 - 4 b122 * b124 + 4 b122 * b125 + 4 b122 * b126 - 4 b122 * b186 + 4 b122 * b508 
  + 4 b123 * b508 + 4 b124 * b508 - 4 b125 * b508 + 4 b126 * b508 - 4 b127 * b131 - 4 b127 * b132 - 4 b127 * b133 
  - 4 b127 * b134 + 4 b127 * b191 - 4 b127 * b508 - 4 b128 * b131 + 4 b128 * b132 - 4 b128 * b133 + 4 b128 * b134 
  + 4 b128 * b192 + 4 b128 * b508 - 4 b129 * b131 - 4 b129 * b132 - 4 b129 * b133 + 4 b129 * b134 - 4 b129 * b193 
  - 4 b129 * b508 - 4 b130 * b131 + 4 b130 * b132 + 4 b130 * b133 + 4 b130 * b134 + 4 b130 * b194 + 4 b130 * b508 
  - 4 b131 * b139 - 4 b131 * b508 + 4 b132 * b140 + 4 b132 * b508 + 4 b133 * b141 + 4 b133 * b508 - 4 b134 * b142 
  + 4 b134 * b508 + 4 b135 * b139 + 4 b135 * b140 + 4 b135 * b141 + 4 b135 * b142 + 4 b135 * b199 - 4 b135 * b508 
  - 4 b136 * b139 + 4 b136 * b140 - 4 b136 * b141 + 4 b136 * b142 + 4 b136 * b200 - 4 b136 * b508 + 4 b137 * b139 
  - 4 b137 * b140 - 4 b137 * b141 + 4 b137 * b142 + 4 b137 * b201 + 4 b137 * b508 + 4 b138 * b139 - 4 b138 * b140 
  + 4 b138 * b141 + 4 b138 * b142 + 4 b138 * b202 - 4 b138 * b508 - 4 b139 * b147 - 4 b139 * b508 - 4 b140 * b148 
  - 4 b140 * b508 + 4 b141 * b149 - 4 b141 * b508 - 4 b142 * b150 + 4 b142 * b508 + 4 b143 * b147 + 4 b143 * b148 
  - 4 b143 * b149 + 4 b143 * b150 - 4 b143 * b207 + 4 b143 * b508 - 4 b144 * b147 - 4 b144 * b148 - 4 b144 * b149 
  - 4 b144 * b150 - 4 b144 * b208 + 4 b144 * b508 - 4 b145 * b147 + 4 b145 * b148 + 4 b145 * b149 - 4 b145 * b150 
  + 4 b145 * b209 + 4 b145 * b508 - 4 b146 * b147 + 4 b146 * b148 + 4 b146 * b149 - 4 b146 * b150 + 4 b146 * b210 
  - 4 b146 * b508 - 4 b147 * b155 - 4 b147 * b508 + 4 b148 * b156 - 4 b148 * b508 + 4 b149 * b157 - 4 b149 * b508 
  + 4 b150 * b158 - 4 b150 * b508 + 4 b151 * b155 - 4 b151 * b156 - 4 b151 * b157 - 4 b151 * b158 + 4 b151 * b215 
  + 4 b151 * b508 + 4 b152 * b155 - 4 b152 * b156 - 4 b152 * b157 - 4 b152 * b158 + 4 b152 * b216 + 4 b152 * b508 
  + 4 b153 * b155 - 4 b153 * b156 + 4 b153 * b157 + 4 b153 * b158 - 4 b153 * b217 - 4 b153 * b508 - 4 b154 * b155 
  - 4 b154 * b156 - 4 b154 * b157 + 4 b154 * b158 - 4 b154 * b218 + 4 b154 * b508 - 4 b155 * b163 + 4 b155 * b508 
  + 4 b156 * b164 + 4 b156 * b508 - 4 b157 * b165 + 4 b157 * b508 - 4 b158 * b166 - 4 b158 * b508 - 4 b159 * b163 
  + 4 b159 * b164 + 4 b159 * b165 - 4 b159 * b166 - 4 b159 * b223 - 4 b159 * b508 + 4 b160 * b163 - 4 b160 * b164 
  + 4 b160 * b165 - 4 b160 * b166 - 4 b160 * b224 + 4 b160 * b508 - 4 b161 * b163 - 4 b161 * b164 + 4 b161 * b165 
  + 4 b161 * b166 - 4 b161 * b225 + 4 b161 * b508 + 4 b162 * b163 + 4 b162 * b164 - 4 b162 * b165 + 4 b162 * b166 
  - 4 b162 * b226 + 4 b162 * b508 + 4 b163 * b171 - 4 b163 * b508 + 4 b164 * b172 - 4 b164 * b508 - 4 b165 * b173 
  - 4 b165 * b508 - 4 b166 * b174 - 4 b166 * b508 - 4 b167 * b171 + 4 b167 * b172 + 4 b167 * b173 - 4 b167 * b174 
  + 4 b167 * b231 - 4 b167 * b508 - 4 b168 * b171 + 4 b168 * b172 - 4 b168 * b173 - 4 b168 * b174 - 4 b168 * b232 
  - 4 b168 * b508 - 4 b169 * b171 - 4 b169 * b172 - 4 b169 * b173 - 4 b169 * b174 + 4 b169 * b233 - 4 b169 * b508 
  - 4 b170 * b171 - 4 b170 * b172 - 4 b170 * b173 + 4 b170 * b174 - 4 b170 * b234 + 4 b170 * b508 - 4 b171 * b179 
  + 4 b171 * b508 - 4 b172 * b180 + 4 b172 * b508 + 4 b173 * b181 + 4 b173 * b508 - 4 b174 * b182 + 4 b174 * b508 
  + 4 b175 * b179 + 4 b175 * b180 + 4 b175 * b181 + 4 b175 * b182 + 4 b175 * b239 + 4 b175 * b508 + 4 b176 * b179 
  + 4 b176 * b180 - 4 b176 * b181 + 4 b176 * b182 + 4 b176 * b240 + 4 b176 * b508 - 4 b177 * b179 - 4 b177 * b180 
  - 4 b177 * b181 - 4 b177 * b182 - 4 b177 * b241 + 4 b177 * b508 + 4 b178 * b179 - 4 b178 * b180 + 4 b178 * b181 
  - 4 b178 * b182 - 4 b178 * b242 + 4 b178 * b508 - 4 b179 * b187 + 4 b179 * b508 + 4 b180 * b188 + 4 b180 * b508 
  + 4 b181 * b189 + 4 b181 * b508 + 4 b182 * b190 - 4 b182 * b508 + 4 b183 * b187 + 4 b183 * b188 - 4 b183 * b189 
  + 4 b183 * b190 + 4 b183 * b247 + 4 b183 * b508 + 4 b184 * b187 + 4 b184 * b188 + 4 b184 * b189 + 4 b184 * b190 
  + 4 b184 * b248 + 4 b184 * b508 - 4 b185 * b187 - 4 b185 * b188 - 4 b185 * b189 + 4 b185 * b190 + 4 b185 * b249 
  - 4 b185 * b508 - 4 b186 * b187 + 4 b186 * b188 + 4 b186 * b189 + 4 b186 * b190 + 4 b186 * b250 + 4 b186 * b508 
  + 4 b187 * b508 + 4 b188 * b508 + 4 b189 * b508 + 4 b190 * b508 - 4 b191 * b195 - 4 b191 * b196 - 4 b191 * b197 
  + 4 b191 * b198 + 4 b191 * b255 + 4 b191 * b508 + 4 b192 * b195 - 4 b192 * b196 + 4 b192 * b197 - 4 b192 * b198 
  - 4 b192 * b256 + 4 b192 * b508 + 4 b193 * b195 + 4 b193 * b196 - 4 b193 * b197 + 4 b193 * b198 - 4 b193 * b257 
  + 4 b193 * b508 - 4 b194 * b195 + 4 b194 * b196 - 4 b194 * b197 + 4 b194 * b198 - 4 b194 * b258 - 4 b194 * b508 
  + 4 b195 * b203 + 4 b195 * b508 - 4 b196 * b204 + 4 b196 * b508 - 4 b197 * b205 + 4 b197 * b508 + 4 b198 * b206 
  - 4 b198 * b508 + 4 b199 * b203 + 4 b199 * b204 + 4 b199 * b205 + 4 b199 * b206 + 4 b199 * b263 - 4 b199 * b508 
  + 4 b200 * b203 - 4 b200 * b204 - 4 b200 * b205 + 4 b200 * b206 - 4 b200 * b264 + 4 b200 * b508 - 4 b201 * b203 
  - 4 b201 * b204 + 4 b201 * b205 - 4 b201 * b206 + 4 b201 * b265 - 4 b201 * b508 + 4 b202 * b203 - 4 b202 * b204 
  + 4 b202 * b205 + 4 b202 * b206 + 4 b202 * b266 + 4 b202 * b508 - 4 b203 * b211 - 4 b203 * b508 - 4 b204 * b212 
  - 4 b204 * b508 + 4 b205 * b213 - 4 b205 * b508 + 4 b206 * b214 + 4 b206 * b508 - 4 b207 * b211 + 4 b207 * b212 
  - 4 b207 * b213 + 4 b207 * b214 + 4 b207 * b271 + 4 b207 * b508 + 4 b208 * b211 + 4 b208 * b212 - 4 b208 * b213 
  - 4 b208 * b214 + 4 b208 * b272 + 4 b208 * b508 + 4 b209 * b211 + 4 b209 * b212 + 4 b209 * b213 - 4 b209 * b214 
  + 4 b209 * b273 - 4 b209 * b508 - 4 b210 * b211 + 4 b210 * b212 - 4 b210 * b213 - 4 b210 * b214 + 4 b210 * b274 
  + 4 b210 * b508 - 4 b211 * b219 - 4 b211 * b508 + 4 b212 * b220 - 4 b212 * b508 + 4 b213 * b221 + 4 b213 * b508 
  - 4 b214 * b222 + 4 b214 * b508 + 4 b215 * b219 + 4 b215 * b220 + 4 b215 * b221 - 4 b215 * b222 + 4 b215 * b279 
  + 4 b215 * b508 - 4 b216 * b219 + 4 b216 * b220 - 4 b216 * b221 + 4 b216 * b222 + 4 b216 * b280 + 4 b216 * b508 
  + 4 b217 * b219 + 4 b217 * b220 - 4 b217 * b221 + 4 b217 * b222 - 4 b217 * b281 - 4 b217 * b508 - 4 b218 * b219 
  + 4 b218 * b220 - 4 b218 * b221 + 4 b218 * b222 + 4 b218 * b282 + 4 b218 * b508 - 4 b219 * b227 + 4 b219 * b508 
  + 4 b220 * b228 - 4 b220 * b508 + 4 b221 * b229 + 4 b221 * b508 - 4 b222 * b230 - 4 b222 * b508 + 4 b223 * b227 
  + 4 b223 * b228 + 4 b223 * b229 - 4 b223 * b230 + 4 b223 * b287 + 4 b223 * b508 - 4 b224 * b227 + 4 b224 * b228 
  + 4 b224 * b229 + 4 b224 * b230 - 4 b224 * b288 + 4 b224 * b508 - 4 b225 * b227 + 4 b225 * b228 + 4 b225 * b229 
  + 4 b225 * b230 + 4 b225 * b289 + 4 b225 * b508 + 4 b226 * b227 - 4 b226 * b228 + 4 b226 * b229 + 4 b226 * b230 
  - 4 b226 * b290 + 4 b226 * b508 - 4 b227 * b235 + 4 b227 * b508 - 4 b228 * b236 - 4 b228 * b508 - 4 b229 * b237 
  + 4 b229 * b508 + 4 b230 * b238 - 4 b230 * b508 - 4 b231 * b235 - 4 b231 * b236 - 4 b231 * b237 + 4 b231 * b238 
  + 4 b231 * b295 + 4 b231 * b508 - 4 b232 * b235 + 4 b232 * b236 + 4 b232 * b237 - 4 b232 * b238 + 4 b232 * b296 
  - 4 b232 * b508 - 4 b233 * b235 + 4 b233 * b236 - 4 b233 * b237 - 4 b233 * b238 + 4 b233 * b297 - 4 b233 * b508 
  - 4 b234 * b235 + 4 b234 * b236 + 4 b234 * b237 - 4 b234 * b238 + 4 b234 * b298 - 4 b234 * b508 + 4 b235 * b243 
  - 4 b235 * b508 - 4 b236 * b244 - 4 b236 * b508 - 4 b237 * b245 + 4 b237 * b508 + 4 b238 * b246 - 4 b238 * b508 
  - 4 b239 * b243 + 4 b239 * b244 + 4 b239 * b245 - 4 b239 * b246 + 4 b239 * b303 - 4 b239 * b508 + 4 b240 * b243 
  + 4 b240 * b244 - 4 b240 * b245 - 4 b240 * b246 + 4 b240 * b304 - 4 b240 * b508 + 4 b241 * b243 - 4 b241 * b244 
  - 4 b241 * b245 + 4 b241 * b246 - 4 b241 * b305 + 4 b241 * b508 - 4 b242 * b243 + 4 b242 * b244 - 4 b242 * b245 
  - 4 b242 * b246 - 4 b242 * b306 - 4 b242 * b508 + 4 b243 * b251 + 4 b243 * b508 + 4 b244 * b252 + 4 b244 * b508 
  + 4 b245 * b253 + 4 b245 * b508 - 4 b246 * b254 - 4 b246 * b508 - 4 b247 * b251 + 4 b247 * b252 + 4 b247 * b253 
  + 4 b247 * b254 + 4 b247 * b311 + 4 b247 * b508 - 4 b248 * b251 - 4 b248 * b252 - 4 b248 * b253 - 4 b248 * b254 
  - 4 b248 * b312 + 4 b248 * b508 + 4 b249 * b251 - 4 b249 * b252 + 4 b249 * b253 + 4 b249 * b254 - 4 b249 * b313 
  + 4 b249 * b508 + 4 b250 * b251 - 4 b250 * b252 - 4 b250 * b253 - 4 b250 * b254 + 4 b250 * b314 + 4 b250 * b508 
  + 4 b251 * b508 + 4 b252 * b508 + 4 b253 * b508 + 4 b254 * b508 - 4 b255 * b259 + 4 b255 * b260 - 4 b255 * b261 
  - 4 b255 * b262 + 4 b255 * b319 - 4 b255 * b508 + 4 b256 * b259 - 4 b256 * b260 - 4 b256 * b261 - 4 b256 * b262 
  - 4 b256 * b320 + 4 b256 * b508 - 4 b257 * b259 - 4 b257 * b260 + 4 b257 * b261 - 4 b257 * b262 - 4 b257 * b321 
  + 4 b257 * b508 + 4 b258 * b259 - 4 b258 * b260 - 4 b258 * b261 - 4 b258 * b262 + 4 b258 * b322 + 4 b258 * b508 
  - 4 b259 * b267 - 4 b259 * b508 + 4 b260 * b268 - 4 b260 * b508 + 4 b261 * b269 - 4 b261 * b508 - 4 b262 * b270 
  - 4 b262 * b508 + 4 b263 * b267 - 4 b263 * b268 + 4 b263 * b269 + 4 b263 * b270 - 4 b263 * b327 + 4 b263 * b508 
  + 4 b264 * b267 + 4 b264 * b268 - 4 b264 * b269 + 4 b264 * b270 - 4 b264 * b328 + 4 b264 * b508 - 4 b265 * b267 
  - 4 b265 * b268 - 4 b265 * b269 + 4 b265 * b270 - 4 b265 * b329 - 4 b265 * b508 + 4 b266 * b267 - 4 b266 * b268 
  - 4 b266 * b269 - 4 b266 * b270 - 4 b266 * b330 + 4 b266 * b508 - 4 b267 * b275 - 4 b267 * b508 + 4 b268 * b276 
  + 4 b268 * b508 + 4 b269 * b277 + 4 b269 * b508 + 4 b270 * b278 + 4 b270 * b508 + 4 b271 * b275 - 4 b271 * b276 
  - 4 b271 * b277 + 4 b271 * b278 - 4 b271 * b335 - 4 b271 * b508 - 4 b272 * b275 - 4 b272 * b276 - 4 b272 * b277 
  + 4 b272 * b278 + 4 b272 * b336 + 4 b272 * b508 - 4 b273 * b275 + 4 b273 * b276 - 4 b273 * b277 - 4 b273 * b278 
  - 4 b273 * b337 - 4 b273 * b508 + 4 b274 * b275 - 4 b274 * b276 - 4 b274 * b277 + 4 b274 * b278 - 4 b274 * b338 
  - 4 b274 * b508 + 4 b275 * b283 + 4 b275 * b508 - 4 b276 * b284 - 4 b276 * b508 + 4 b277 * b285 + 4 b277 * b508 
  - 4 b278 * b286 + 4 b278 * b508 + 4 b279 * b283 + 4 b279 * b284 - 4 b279 * b285 + 4 b279 * b286 - 4 b279 * b343 
  + 4 b279 * b508 - 4 b280 * b283 + 4 b280 * b284 + 4 b280 * b285 - 4 b280 * b286 - 4 b280 * b344 + 4 b280 * b508 
  + 4 b281 * b283 + 4 b281 * b284 + 4 b281 * b285 + 4 b281 * b286 + 4 b281 * b345 - 4 b281 * b508 - 4 b282 * b283 
  + 4 b282 * b284 - 4 b282 * b285 + 4 b282 * b286 - 4 b282 * b346 + 4 b282 * b508 + 4 b283 * b291 + 4 b283 * b508 
  - 4 b284 * b292 - 4 b284 * b508 - 4 b285 * b293 - 4 b285 * b508 - 4 b286 * b294 - 4 b286 * b508 + 4 b287 * b291 
  + 4 b287 * b292 - 4 b287 * b293 + 4 b287 * b294 - 4 b287 * b351 + 4 b287 * b508 + 4 b288 * b291 - 4 b288 * b292 
  - 4 b288 * b293 + 4 b288 * b294 - 4 b288 * b352 + 4 b288 * b508 + 4 b289 * b291 - 4 b289 * b292 + 4 b289 * b293 
  - 4 b289 * b294 + 4 b289 * b353 + 4 b289 * b508 - 4 b290 * b291 - 4 b290 * b292 + 4 b290 * b293 - 4 b290 * b294 
  - 4 b290 * b354 - 4 b290 * b508 + 4 b291 * b299 - 4 b291 * b508 + 4 b292 * b300 + 4 b292 * b508 + 4 b293 * b301 
  - 4 b293 * b508 + 4 b294 * b302 - 4 b294 * b508 + 4 b295 * b299 + 4 b295 * b300 - 4 b295 * b301 + 4 b295 * b302 
  - 4 b295 * b359 - 4 b295 * b508 - 4 b296 * b299 - 4 b296 * b300 - 4 b296 * b301 + 4 b296 * b302 + 4 b296 * b360 
  + 4 b296 * b508 - 4 b297 * b299 + 4 b297 * b300 + 4 b297 * b301 - 4 b297 * b302 - 4 b297 * b361 - 4 b297 * b508 
  - 4 b298 * b299 - 4 b298 * b300 + 4 b298 * b301 - 4 b298 * b302 - 4 b298 * b362 + 4 b298 * b508 - 4 b299 * b307 
  + 4 b299 * b508 - 4 b300 * b308 + 4 b300 * b508 - 4 b301 * b309 + 4 b301 * b508 - 4 b302 * b310 - 4 b302 * b508 
  + 4 b303 * b307 + 4 b303 * b308 - 4 b303 * b309 - 4 b303 * b310 - 4 b303 * b367 - 4 b303 * b508 + 4 b304 * b307 
  - 4 b304 * b308 + 4 b304 * b309 + 4 b304 * b310 + 4 b304 * b368 + 4 b304 * b508 - 4 b305 * b307 + 4 b305 * b308 
  - 4 b305 * b309 - 4 b305 * b310 - 4 b305 * b369 - 4 b305 * b508 - 4 b306 * b307 - 4 b306 * b308 + 4 b306 * b309 
  + 4 b306 * b310 - 4 b306 * b370 - 4 b306 * b508 - 4 b307 * b315 - 4 b307 * b508 + 4 b308 * b316 + 4 b308 * b508 
  - 4 b309 * b317 - 4 b309 * b508 - 4 b310 * b318 + 4 b310 * b508 - 4 b311 * b315 - 4 b311 * b316 + 4 b311 * b317 
  - 4 b311 * b318 - 4 b311 * b375 + 4 b311 * b508 - 4 b312 * b315 - 4 b312 * b316 + 4 b312 * b317 + 4 b312 * b318 
  - 4 b312 * b376 - 4 b312 * b508 - 4 b313 * b315 + 4 b313 * b316 + 4 b313 * b317 + 4 b313 * b318 - 4 b313 * b377 
  + 4 b313 * b508 + 4 b314 * b315 + 4 b314 * b316 - 4 b314 * b317 + 4 b314 * b318 + 4 b314 * b378 - 4 b314 * b508 
  - 4 b315 * b508 - 4 b316 * b508 + 4 b317 * b508 + 4 b318 * b508 - 4 b319 * b323 - 4 b319 * b324 + 4 b319 * b325 
  - 4 b319 * b326 - 4 b319 * b383 + 4 b319 * b508 - 4 b320 * b323 + 4 b320 * b324 - 4 b320 * b325 + 4 b320 * b326 
  + 4 b320 * b384 + 4 b320 * b508 - 4 b321 * b323 + 4 b321 * b324 - 4 b321 * b325 - 4 b321 * b326 + 4 b321 * b385 
  - 4 b321 * b508 - 4 b322 * b323 - 4 b322 * b324 + 4 b322 * b325 - 4 b322 * b326 - 4 b322 * b386 + 4 b322 * b508 
  - 4 b323 * b331 + 4 b323 * b508 + 4 b324 * b332 + 4 b324 * b508 + 4 b325 * b333 - 4 b325 * b508 - 4 b326 * b334 
  - 4 b326 * b508 + 4 b327 * b331 - 4 b327 * b332 + 4 b327 * b333 - 4 b327 * b334 + 4 b327 * b391 - 4 b327 * b508 
  - 4 b328 * b331 + 4 b328 * b332 + 4 b328 * b333 - 4 b328 * b334 - 4 b328 * b392 + 4 b328 * b508 + 4 b329 * b331 
  - 4 b329 * b332 - 4 b329 * b333 + 4 b329 * b334 - 4 b329 * b393 + 4 b329 * b508 + 4 b330 * b331 - 4 b330 * b332 
  + 4 b330 * b333 + 4 b330 * b334 - 4 b330 * b394 - 4 b330 * b508 - 4 b331 * b339 - 4 b331 * b508 + 4 b332 * b340 
  + 4 b332 * b508 + 4 b333 * b341 + 4 b333 * b508 - 4 b334 * b342 - 4 b334 * b508 - 4 b335 * b339 + 4 b335 * b340 
  - 4 b335 * b341 - 4 b335 * b342 + 4 b335 * b398 - 4 b335 * b508 - 4 b336 * b339 - 4 b336 * b340 + 4 b336 * b341 
  - 4 b336 * b342 + 4 b336 * b399 - 4 b336 * b508 + 4 b337 * b339 + 4 b337 * b340 + 4 b337 * b341 + 4 b337 * b342 
  + 4 b337 * b400 + 4 b337 * b508 + 4 b338 * b339 + 4 b338 * b340 + 4 b338 * b341 - 4 b338 * b342 + 4 b338 * b401 
  - 4 b338 * b508 - 4 b339 * b347 - 4 b339 * b508 + 4 b340 * b348 - 4 b340 * b508 + 4 b341 * b349 + 4 b341 * b508 
  - 4 b342 * b350 + 4 b342 * b508 - 4 b343 * b347 - 4 b343 * b348 + 4 b343 * b349 - 4 b343 * b350 - 4 b343 * b406 
  - 4 b343 * b508 - 4 b344 * b347 - 4 b344 * b348 - 4 b344 * b349 - 4 b344 * b350 - 4 b344 * b407 + 4 b344 * b508 
  + 4 b345 * b347 + 4 b345 * b348 - 4 b345 * b349 - 4 b345 * b350 + 4 b345 * b408 + 4 b345 * b508 - 4 b346 * b347 
  - 4 b346 * b348 - 4 b346 * b349 + 4 b346 * b350 + 4 b346 * b409 + 4 b346 * b508 - 4 b347 * b355 - 4 b347 * b508 
  + 4 b348 * b356 - 4 b348 * b508 - 4 b349 * b357 - 4 b349 * b508 - 4 b350 * b358 - 4 b350 * b508 + 4 b351 * b355 
  + 4 b351 * b356 + 4 b351 * b357 + 4 b351 * b358 - 4 b351 * b414 - 4 b351 * b508 - 4 b352 * b355 - 4 b352 * b356 
  + 4 b352 * b357 - 4 b352 * b358 - 4 b352 * b415 + 4 b352 * b508 + 4 b353 * b355 + 4 b353 * b356 + 4 b353 * b357 
  + 4 b353 * b358 + 4 b353 * b416 + 4 b353 * b508 + 4 b354 * b355 + 4 b354 * b356 - 4 b354 * b357 - 4 b354 * b358 
  - 4 b354 * b417 - 4 b354 * b508 + 4 b355 * b363 - 4 b355 * b508 - 4 b356 * b364 - 4 b356 * b508 - 4 b357 * b365 
  + 4 b357 * b508 + 4 b358 * b366 - 4 b358 * b508 + 4 b359 * b363 - 4 b359 * b364 - 4 b359 * b365 + 4 b359 * b366 
  - 4 b359 * b422 + 4 b359 * b508 - 4 b360 * b363 + 4 b360 * b364 + 4 b360 * b365 + 4 b360 * b366 - 4 b360 * b423 
  - 4 b360 * b508 + 4 b361 * b363 + 4 b361 * b364 - 4 b361 * b365 - 4 b361 * b366 + 4 b361 * b508 - 4 b362 * b363 
  + 4 b362 * b364 + 4 b362 * b365 - 4 b362 * b366 + 4 b362 * b424 + 4 b362 * b508 - 4 b363 * b371 + 4 b363 * b508 
  - 4 b364 * b372 + 4 b364 * b508 + 4 b365 * b373 - 4 b365 * b508 - 4 b366 * b374 - 4 b366 * b508 - 4 b367 * b371 
  + 4 b367 * b372 - 4 b367 * b373 - 4 b367 * b374 - 4 b367 * b428 + 4 b367 * b508 - 4 b368 * b371 + 4 b368 * b372 
  + 4 b368 * b373 + 4 b368 * b374 - 4 b368 * b429 - 4 b368 * b508 - 4 b369 * b371 - 4 b369 * b372 + 4 b369 * b373 
  + 4 b369 * b374 - 4 b369 * b430 + 4 b369 * b508 - 4 b370 * b371 + 4 b370 * b372 - 4 b370 * b373 + 4 b370 * b374 
  - 4 b370 * b431 + 4 b370 * b508 + 4 b371 * b379 + 4 b371 * b508 + 4 b372 * b380 - 4 b372 * b508 + 4 b373 * b381 
  - 4 b373 * b508 - 4 b374 * b382 + 4 b374 * b508 + 4 b375 * b379 - 4 b375 * b380 + 4 b375 * b381 + 4 b375 * b382 
  - 4 b375 * b436 - 4 b375 * b508 - 4 b376 * b379 + 4 b376 * b380 + 4 b376 * b381 - 4 b376 * b382 - 4 b376 * b437 
  - 4 b376 * b508 + 4 b377 * b379 + 4 b377 * b380 - 4 b377 * b381 - 4 b377 * b382 + 4 b377 * b438 - 4 b377 * b508 
  - 4 b378 * b379 - 4 b378 * b380 + 4 b378 * b381 - 4 b378 * b382 - 4 b378 * b439 - 4 b378 * b508 + 4 b379 * b508 
  + 4 b380 * b508 - 4 b381 * b508 - 4 b382 * b508 - 4 b383 * b387 + 4 b383 * b388 - 4 b383 * b389 + 4 b383 * b390 
  - 4 b383 * b444 + 4 b383 * b508 - 4 b384 * b387 - 4 b384 * b388 + 4 b384 * b389 - 4 b384 * b390 + 4 b384 * b445 
  - 4 b384 * b508 - 4 b385 * b387 + 4 b385 * b388 - 4 b385 * b389 + 4 b385 * b390 + 4 b385 * b446 + 4 b385 * b508 
  - 4 b386 * b387 - 4 b386 * b388 - 4 b386 * b389 + 4 b386 * b390 + 4 b386 * b447 - 4 b386 * b508 + 4 b387 * b395 
  - 4 b387 * b508 + 4 b388 * b396 + 4 b388 * b508 + 4 b389 * b397 - 4 b389 * b508 - 4 b390 * b508 + 4 b391 * b395 
  + 4 b391 * b396 - 4 b391 * b397 + 4 b391 * b452 - 4 b391 * b508 + 4 b392 * b395 + 4 b392 * b396 + 4 b392 * b397 
  + 4 b392 * b453 + 4 b392 * b508 - 4 b393 * b395 + 4 b393 * b396 - 4 b393 * b397 + 4 b393 * b454 - 4 b393 * b508 
  - 4 b394 * b395 - 4 b394 * b396 + 4 b394 * b397 + 4 b394 * b455 + 4 b394 * b508 - 4 b395 * b402 + 4 b395 * b508 
  + 4 b396 * b403 - 4 b396 * b508 - 4 b397 * b404 + 4 b397 * b508 + 4 b398 * b402 - 4 b398 * b403 + 4 b398 * b404 
  - 4 b398 * b405 - 4 b398 * b460 + 4 b398 * b508 + 4 b399 * b402 - 4 b399 * b403 - 4 b399 * b404 - 4 b399 * b405 
  - 4 b399 * b461 + 4 b399 * b508 - 4 b400 * b402 - 4 b400 * b403 + 4 b400 * b404 - 4 b400 * b405 + 4 b400 * b462 
  - 4 b400 * b508 + 4 b401 * b402 + 4 b401 * b403 + 4 b401 * b404 + 4 b401 * b405 - 4 b401 * b463 - 4 b401 * b508 
  + 4 b402 * b410 - 4 b402 * b508 - 4 b403 * b411 + 4 b403 * b508 + 4 b404 * b412 + 4 b404 * b508 - 4 b405 * b413 
  + 4 b405 * b508 - 4 b406 * b410 - 4 b406 * b411 - 4 b406 * b412 - 4 b406 * b413 - 4 b406 * b468 - 4 b406 * b508 
  + 4 b407 * b410 - 4 b407 * b411 + 4 b407 * b412 - 4 b407 * b413 + 4 b407 * b469 - 4 b407 * b508 + 4 b408 * b410 
  - 4 b408 * b411 - 4 b408 * b412 - 4 b408 * b413 + 4 b408 * b470 + 4 b408 * b508 + 4 b409 * b410 - 4 b409 * b411 
  - 4 b409 * b412 - 4 b409 * b413 - 4 b409 * b471 + 4 b409 * b508 + 4 b410 * b418 + 4 b410 * b508 + 4 b411 * b419 
  + 4 b411 * b508 - 4 b412 * b420 - 4 b412 * b508 - 4 b413 * b421 + 4 b413 * b508 + 4 b414 * b418 - 4 b414 * b419 
  + 4 b414 * b420 - 4 b414 * b421 + 4 b414 * b476 - 4 b414 * b508 - 4 b415 * b418 - 4 b415 * b419 - 4 b415 * b420 
  + 4 b415 * b421 + 4 b415 * b477 - 4 b415 * b508 - 4 b416 * b418 - 4 b416 * b419 - 4 b416 * b420 + 4 b416 * b421 
  + 4 b416 * b478 + 4 b416 * b508 - 4 b417 * b418 + 4 b417 * b419 - 4 b417 * b420 + 4 b417 * b421 + 4 b417 * b479 
  - 4 b417 * b508 + 4 b418 * b425 - 4 b418 * b508 + 4 b419 * b426 + 4 b419 * b508 - 4 b420 * b427 + 4 b420 * b508 
  + 4 b421 * b508 - 4 b422 * b425 + 4 b422 * b426 + 4 b422 * b427 + 4 b422 * b484 - 4 b422 * b508 + 4 b423 * b425 
  + 4 b423 * b426 + 4 b423 * b427 - 4 b423 * b485 - 4 b423 * b508 + 4 b424 * b425 + 4 b424 * b426 + 4 b424 * b427 
  + 4 b424 * b487 - 4 b424 * b508 - 4 b425 * b432 - 4 b425 * b508 + 4 b426 * b433 - 4 b426 * b508 - 4 b427 * b434 
  + 4 b427 * b508 - 4 b428 * b432 - 4 b428 * b433 - 4 b428 * b434 + 4 b428 * b435 - 4 b428 * b492 - 4 b428 * b508 
  + 4 b429 * b432 - 4 b429 * b433 - 4 b429 * b434 - 4 b429 * b435 - 4 b429 * b493 + 4 b429 * b508 - 4 b430 * b432 
  - 4 b430 * b433 + 4 b430 * b434 - 4 b430 * b435 - 4 b430 * b494 + 4 b430 * b508 + 4 b431 * b432 - 4 b431 * b433 
  + 4 b431 * b434 - 4 b431 * b435 - 4 b431 * b495 - 4 b431 * b508 - 4 b432 * b440 + 4 b432 * b508 + 4 b433 * b441 
  + 4 b433 * b508 + 4 b434 * b442 + 4 b434 * b508 - 4 b435 * b443 - 4 b435 * b508 - 4 b436 * b440 - 4 b436 * b441 
  - 4 b436 * b442 - 4 b436 * b443 + 4 b436 * b500 - 4 b436 * b508 - 4 b437 * b440 - 4 b437 * b441 + 4 b437 * b442 
  + 4 b437 * b443 - 4 b437 * b501 - 4 b437 * b508 - 4 b438 * b440 + 4 b438 * b441 - 4 b438 * b442 + 4 b438 * b443 
  + 4 b438 * b502 - 4 b438 * b508 + 4 b439 * b440 - 4 b439 * b441 - 4 b439 * b442 - 4 b439 * b443 + 4 b439 * b503 
  - 4 b439 * b508 + 4 b440 * b508 - 4 b441 * b508 - 4 b442 * b508 - 4 b443 * b508 - 4 b444 * b448 + 4 b444 * b449 
  + 4 b444 * b450 - 4 b444 * b451 - 4 b444 * b508 + 4 b445 * b448 - 4 b445 * b449 - 4 b445 * b450 - 4 b445 * b451 
  + 4 b445 * b508 + 4 b446 * b448 - 4 b446 * b449 - 4 b446 * b450 - 4 b446 * b451 - 4 b446 * b508 - 4 b447 * b448 
  - 4 b447 * b449 + 4 b447 * b450 + 4 b447 * b451 + 4 b447 * b508 - 4 b448 * b456 + 4 b448 * b508 - 4 b449 * b457 
  - 4 b449 * b508 - 4 b450 * b458 - 4 b450 * b508 + 4 b451 * b459 - 4 b451 * b508 - 4 b452 * b456 - 4 b452 * b457 
  + 4 b452 * b458 - 4 b452 * b459 - 4 b452 * b508 - 4 b453 * b456 + 4 b453 * b457 - 4 b453 * b458 - 4 b453 * b459 
  + 4 b453 * b508 - 4 b454 * b456 - 4 b454 * b457 - 4 b454 * b458 - 4 b454 * b459 + 4 b454 * b508 + 4 b455 * b456 
  + 4 b455 * b457 - 4 b455 * b458 - 4 b455 * b459 - 4 b455 * b508 - 4 b456 * b464 + 4 b456 * b508 - 4 b457 * b465 
  - 4 b457 * b508 - 4 b458 * b466 - 4 b458 * b508 + 4 b459 * b467 + 4 b459 * b508 - 4 b460 * b464 - 4 b460 * b465 
  - 4 b460 * b466 - 4 b460 * b467 + 4 b460 * b508 - 4 b461 * b464 - 4 b461 * b465 - 4 b461 * b466 - 4 b461 * b467 
  - 4 b461 * b508 + 4 b462 * b464 - 4 b462 * b465 - 4 b462 * b466 - 4 b462 * b467 - 4 b462 * b508 + 4 b463 * b464 
  - 4 b463 * b465 + 4 b463 * b466 + 4 b463 * b467 - 4 b463 * b508 + 4 b464 * b472 + 4 b464 * b508 - 4 b465 * b473 
  - 4 b465 * b508 + 4 b466 * b474 - 4 b466 * b508 - 4 b467 * b475 + 4 b467 * b508 - 4 b468 * b472 - 4 b468 * b473 
  + 4 b468 * b474 - 4 b468 * b475 - 4 b468 * b508 - 4 b469 * b472 + 4 b469 * b473 + 4 b469 * b474 - 4 b469 * b475 
  + 4 b469 * b508 + 4 b470 * b472 + 4 b470 * b473 - 4 b470 * b474 + 4 b470 * b475 - 4 b470 * b508 - 4 b471 * b472 
  + 4 b471 * b473 + 4 b471 * b474 + 4 b471 * b475 - 4 b471 * b508 - 4 b472 * b480 - 4 b472 * b508 + 4 b473 * b481 
  + 4 b473 * b508 + 4 b474 * b482 + 4 b474 * b508 + 4 b475 * b483 - 4 b475 * b508 - 4 b476 * b480 - 4 b476 * b481 
  - 4 b476 * b482 - 4 b476 * b483 - 4 b476 * b508 + 4 b477 * b480 - 4 b477 * b481 + 4 b477 * b482 + 4 b477 * b483 
  - 4 b477 * b508 + 4 b478 * b480 + 4 b478 * b481 + 4 b478 * b482 + 4 b478 * b483 + 4 b478 * b508 + 4 b479 * b480 
  + 4 b479 * b481 + 4 b479 * b482 + 4 b479 * b483 + 4 b479 * b508 - 4 b480 * b488 + 4 b480 * b508 - 4 b481 * b489 
  - 4 b481 * b508 + 4 b482 * b490 + 4 b482 * b508 + 4 b483 * b491 - 4 b483 * b508 - 4 b484 * b488 - 4 b484 * b489 
  - 4 b484 * b490 - 4 b484 * b491 + 4 b484 * b508 + 4 b485 * b488 - 4 b485 * b489 - 4 b485 * b490 + 4 b485 * b491 
  - 4 b485 * b508 + 4 b486 * b488 - 4 b486 * b489 + 4 b486 * b490 + 4 b486 * b491 + 4 b486 * b508 + 4 b487 * b488 
  - 4 b487 * b489 + 4 b487 * b490 + 4 b487 * b491 - 4 b487 * b508 + 4 b488 * b496 + 4 b488 * b508 + 4 b489 * b497 
  + 4 b489 * b508 - 4 b490 * b498 - 4 b490 * b508 + 4 b491 * b499 - 4 b491 * b508 + 4 b492 * b496 + 4 b492 * b497 
  + 4 b492 * b498 + 4 b492 * b499 + 4 b492 * b508 - 4 b493 * b496 + 4 b493 * b497 + 4 b493 * b498 + 4 b493 * b499 
  + 4 b493 * b508 - 4 b494 * b496 - 4 b494 * b497 - 4 b494 * b498 + 4 b494 * b499 + 4 b494 * b508 + 4 b495 * b496 
  - 4 b495 * b497 - 4 b495 * b498 - 4 b495 * b499 + 4 b495 * b508 + 4 b496 * b504 + 4 b496 * b508 + 4 b497 * b505 
  + 4 b497 * b508 - 4 b498 * b506 + 4 b498 * b508 + 4 b499 * b507 - 4 b499 * b508 - 4 b500 * b504 - 4 b500 * b505 
  - 4 b500 * b506 - 4 b500 * b507 + 4 b500 * b508 + 4 b501 * b504 + 4 b501 * b505 - 4 b501 * b506 + 4 b501 * b507 
  - 4 b501 * b508 - 4 b502 * b504 + 4 b502 * b505 - 4 b502 * b506 + 4 b502 * b507 - 4 b502 * b508 - 4 b503 * b504 
  - 4 b503 * b505 + 4 b503 * b506 + 4 b503 * b507 - 4 b503 * b508 - 4 b504 * b508 - 4 b505 * b508 - 4 b506 * b508 
  - 4 b507 * b508 ]/2

Subject To

Binary
 b1 b2 b3 b4 b5 b6 b7 b8 b9 b10 b11 b12 b13 b14 b15 b16 b17 b18 b19 b20 b21 b22 b23 b24 b25
 b26 b27 b28 b29 b30 b31 b32 b33 b34 b35 b36 b37 b38 b39 b40 b41 b42 b43 b44 b45 b46 b47 b48
 b49 b50 b51 b52 b53 b54 b55 b56 b57 b58 b59 b60 b61 b62 b63 b64 b65 b66 b67 b68 b69 b70 b71
 b72 b73 b74 b75 b76 b77 b78 b79 b80 b81 b82 b83 b84 b85 b86 b87 b88 b89 b90 b91 b92 b93 b94
 b95 b96 b97 b98 b99 b100 b101 b102 b103 b104 b105 b106 b107 b108 b109 b110 b111 b112 b113 b114
 b115 b116 b117 b118 b119 b120 b121 b122 b123 b124 b125 b126 b127 b128 b129 b130 b131 b132 b133
 b134 b135 b136 b137 b138 b139 b140 b141 b142 b143 b144 b145 b146 b147 b148 b149 b150 b151 b152
 b153 b154 b155 b156 b157 b158 b159 b160 b161 b162 b163 b164 b165 b166 b167 b168 b169 b170 b171
 b172 b173 b174 b175 b176 b177 b178 b179 b180 b181 b182 b183 b184 b185 b186 b187 b188 b189 b190
 b191 b192 b193 b194 b195 b196 b197 b198 b199 b200 b201 b202 b203 b204 b205 b206 b207 b208 b209
 b210 b211 b212 b213 b214 b215 b216 b217 b218 b219 b220 b221 b222 b223 b224 b225 b226 b227 b228
 b229 b230 b231 b232 b233 b234 b235 b236 b237 b238 b239 b240 b241 b242 b243 b244 b245 b246 b247
 b248 b249 b250 b251 b252 b253 b254 b255 b256 b257 b258 b259 b260 b261 b262 b263 b264 b265 b266
 b267 b268 b269 b270 b271 b272 b273 b274 b275 b276 b277 b278 b279 b280 b281 b282 b283 b284 b285
 b286 b287 b288 b289 b290 b291 b292 b293 b294 b295 b296 b297 b298 b299 b300 b301 b302 b303 b304
 b305 b306 b307 b308 b309 b310 b311 b312 b313 b314 b315 b316 b317 b318 b319 b320 b321 b322 b323
 b324 b325 b326 b327 b328 b329 b330 b331 b332 b333 b334 b335 b336 b337 b338 b339 b340 b341 b342
 b343 b344 b345 b346 b347 b348 b349 b350 b351 b352 b353 b354 b355 b356 b357 b358 b359 b360 b361
 b362 b363 b364 b365 b366 b367 b368 b369 b370 b371 b372 b373 b374 b375 b376 b377 b378 b379 b380
 b381 b382 b383 b384 b385 b386 b387 b388 b389 b390 b391 b392 b393 b394 b395 b396 b397 b398 b399
 b400 b401 b402 b403 b404 b405 b406 b407 b408 b409 b410 b411 b412 b413 b414 b415 b416 b417 b418
 b419 b420 b421 b422 b423 b424 b425 b426 b427 b428 b429 b430 b431 b432 b433 b434 b435 b436 b437
 b438 b439 b440 b441 b442 b443 b444 b445 b446 b447 b448 b449 b450 b451 b452 b453 b454 b455 b456
 b457 b458 b459 b460 b461 b462 b463 b464 b465 b466 b467 b468 b469 b470 b471 b472 b473 b474 b475
 b476 b477 b478 b479 b480 b481 b482 b483 b484 b485 b486 b487 b488 b489 b490 b491 b492 b493 b494
 b495 b496 b497 b498 b499 b500 b501 b502 b503 b504 b505 b506 b507 b508

End
